c This formula is used to model the Einstein's Puzzle
c
c    clause length = mixed
c
c    variables count = 150
c    clauses count = 1180
c
c    simple rule clauses = 100
c    proximity rule clauses = 450
c    exactly one rule clauses = 330
c    unique rule clauses = 300
c
p cnf 150 1180
-P6 P11 0
-P11 P6 0
-Q6 Q11 0
-Q11 Q6 0
-R6 R11 0
-R11 R6 0
-S6 S11 0
-S11 S6 0
-T6 T11 0
-T11 T6 0
-P12 P26 0
-P26 P12 0
-Q12 Q26 0
-Q26 Q12 0
-R12 R26 0
-R26 R12 0
-S12 S26 0
-S26 S12 0
-T12 T26 0
-T26 T12 0
-P13 P16 0
-P16 P13 0
-Q13 Q16 0
-Q16 Q13 0
-R13 R16 0
-R16 R13 0
-S13 S16 0
-S16 S13 0
-T13 T16 0
-T16 T13 0
-P7 P17 0
-P17 P7 0
-Q7 Q17 0
-Q17 Q7 0
-R7 R17 0
-R17 R7 0
-S7 S17 0
-S17 S7 0
-T7 T17 0
-T17 T7 0
-P21 P27 0
-P27 P21 0
-Q21 Q27 0
-Q27 Q21 0
-R21 R27 0
-R27 R21 0
-S21 S27 0
-S27 S21 0
-T21 T27 0
-T27 T21 0
-P8 P22 0
-P22 P8 0
-Q8 Q22 0
-Q22 Q8 0
-R8 R22 0
-R22 R8 0
-S8 S22 0
-S22 S8 0
-T8 T22 0
-T22 T8 0
-P3 P18 0
-P18 P3 0
-Q3 Q18 0
-Q18 Q3 0
-R3 R18 0
-R18 R3 0
-S3 S18 0
-S18 S3 0
-T3 T18 0
-T18 T3 0
-P1 P14 0
-P14 P1 0
-Q1 Q14 0
-Q14 Q1 0
-R1 R14 0
-R14 R1 0
-S1 S14 0
-S14 S1 0
-T1 T14 0
-T14 T1 0
-P19 P24 0
-P24 P19 0
-Q19 Q24 0
-Q24 Q19 0
-R19 R24 0
-R24 R19 0
-S19 S24 0
-S24 S19 0
-T19 T24 0
-T24 T19 0
-P15 P25 0
-P25 P15 0
-Q15 Q25 0
-Q25 Q15 0
-R15 R25 0
-R25 R15 0
-S15 S25 0
-S25 S15 0
-T15 T25 0
-T25 T15 0
-P23 -P28 0
-Q23 -Q28 0
-R23 -R28 0
-S23 -S28 0
-T23 -T28 0
-P22 -P29 0
-Q22 -Q29 0
-R22 -R29 0
-S22 -S29 0
-T22 -T29 0
-P9 -P14 0
-Q9 -Q14 0
-R9 -R14 0
-S9 -S14 0
-T9 -T14 0
-P20 -P23 0
-Q20 -Q23 0
-R20 -R23 0
-S20 -S23 0
-T20 -T23 0
-P5 -P7 0
-P2 -P3 -P7 -P10 0
-P4 P5 -P7 -P10 0
-Q5 -Q7 0
-Q2 -Q3 -Q7 -Q10 0
-Q4 Q5 -Q7 -Q10 0
-R5 -R7 0
-R2 -R3 -R7 -R10 0
-R4 R5 -R7 -R10 0
-S5 -S7 0
-S2 -S3 -S7 -S10 0
-S4 S5 -S7 -S10 0
-T5 -T7 0
-T2 -T3 -T7 -T10 0
-T4 T5 -T7 -T10 0
-P1 -P10 0
-P3 -P4 -P7 -P10 0
P1 -P2 -P7 -P10 0
-Q1 -Q10 0
-Q3 -Q4 -Q7 -Q10 0
Q1 -Q2 -Q7 -Q10 0
-R1 -R10 0
-R3 -R4 -R7 -R10 0
R1 -R2 -R7 -R10 0
-S1 -S10 0
-S3 -S4 -S7 -S10 0
S1 -S2 -S7 -S10 0
-T1 -T10 0
-T3 -T4 -T7 -T10 0
T1 -T2 -T7 -T10 0
-P1 -P23 Q2 -Q28 0
-P1 -P23 R2 -R28 0
-P1 -P23 S2 -S28 0
-P1 -P23 T2 -T28 0
-P2 -P23 Q1 Q3 -Q28 0
-P2 -P23 R1 R3 -R28 0
-P2 -P23 S1 S3 -S28 0
-P2 -P23 T1 T3 -T28 0
-P3 -P23 Q2 Q4 -Q28 0
-P3 -P23 R2 R4 -R28 0
-P3 -P23 S2 S4 -S28 0
-P3 -P23 T2 T4 -T28 0
-P4 -P23 Q3 Q5 -Q28 0
-P4 -P23 R3 R5 -R28 0
-P4 -P23 S3 S5 -S28 0
-P4 -P23 T3 T5 -T28 0
-P5 -P23 Q4 -Q28 0
-P5 -P23 R4 -R28 0
-P5 -P23 S4 -S28 0
-P5 -P23 T4 -T28 0
-Q1 -Q23 P2 -P28 0
-Q1 -Q23 R2 -R28 0
-Q1 -Q23 S2 -S28 0
-Q1 -Q23 T2 -T28 0
-Q2 -Q23 P1 P3 -P28 0
-Q2 -Q23 R1 R3 -R28 0
-Q2 -Q23 S1 S3 -S28 0
-Q2 -Q23 T1 T3 -T28 0
-Q3 -Q23 P2 P4 -P28 0
-Q3 -Q23 R2 R4 -R28 0
-Q3 -Q23 S2 S4 -S28 0
-Q3 -Q23 T2 T4 -T28 0
-Q4 -Q23 P3 P5 -P28 0
-Q4 -Q23 R3 R5 -R28 0
-Q4 -Q23 S3 S5 -S28 0
-Q4 -Q23 T3 T5 -T28 0
-Q5 -Q23 P4 -P28 0
-Q5 -Q23 R4 -R28 0
-Q5 -Q23 S4 -S28 0
-Q5 -Q23 T4 -T28 0
-R1 -R23 P2 -P28 0
-R1 -R23 Q2 -Q28 0
-R1 -R23 S2 -S28 0
-R1 -R23 T2 -T28 0
-R2 -R23 P1 P3 -P28 0
-R2 -R23 Q1 Q3 -Q28 0
-R2 -R23 S1 S3 -S28 0
-R2 -R23 T1 T3 -T28 0
-R3 -R23 P2 P4 -P28 0
-R3 -R23 Q2 Q4 -Q28 0
-R3 -R23 S2 S4 -S28 0
-R3 -R23 T2 T4 -T28 0
-R4 -R23 P3 P5 -P28 0
-R4 -R23 Q3 Q5 -Q28 0
-R4 -R23 S3 S5 -S28 0
-R4 -R23 T3 T5 -T28 0
-R5 -R23 P4 -P28 0
-R5 -R23 Q4 -Q28 0
-R5 -R23 S4 -S28 0
-R5 -R23 T4 -T28 0
-S1 -S23 P2 -P28 0
-S1 -S23 Q2 -Q28 0
-S1 -S23 R2 -R28 0
-S1 -S23 T2 -T28 0
-S2 -S23 P1 P3 -P28 0
-S2 -S23 Q1 Q3 -Q28 0
-S2 -S23 R1 R3 -R28 0
-S2 -S23 T1 T3 -T28 0
-S3 -S23 P2 P4 -P28 0
-S3 -S23 Q2 Q4 -Q28 0
-S3 -S23 R2 R4 -R28 0
-S3 -S23 T2 T4 -T28 0
-S4 -S23 P3 P5 -P28 0
-S4 -S23 Q3 Q5 -Q28 0
-S4 -S23 R3 R5 -R28 0
-S4 -S23 T3 T5 -T28 0
-S5 -S23 P4 -P28 0
-S5 -S23 Q4 -Q28 0
-S5 -S23 R4 -R28 0
-S5 -S23 T4 -T28 0
-T1 -T23 P2 -P28 0
-T1 -T23 Q2 -Q28 0
-T1 -T23 R2 -R28 0
-T1 -T23 S2 -S28 0
-T2 -T23 P1 P3 -P28 0
-T2 -T23 Q1 Q3 -Q28 0
-T2 -T23 R1 R3 -R28 0
-T2 -T23 S1 S3 -S28 0
-T3 -T23 P2 P4 -P28 0
-T3 -T23 Q2 Q4 -Q28 0
-T3 -T23 R2 R4 -R28 0
-T3 -T23 S2 S4 -S28 0
-T4 -T23 P3 P5 -P28 0
-T4 -T23 Q3 Q5 -Q28 0
-T4 -T23 R3 R5 -R28 0
-T4 -T23 S3 S5 -S28 0
-T5 -T23 P4 -P28 0
-T5 -T23 Q4 -Q28 0
-T5 -T23 R4 -R28 0
-T5 -T23 S4 -S28 0
-P1 -P22 Q2 -Q29 0
-P1 -P22 R2 -R29 0
-P1 -P22 S2 -S29 0
-P1 -P22 T2 -T29 0
-P2 -P22 Q1 Q3 -Q29 0
-P2 -P22 R1 R3 -R29 0
-P2 -P22 S1 S3 -S29 0
-P2 -P22 T1 T3 -T29 0
-P3 -P22 Q2 Q4 -Q29 0
-P3 -P22 R2 R4 -R29 0
-P3 -P22 S2 S4 -S29 0
-P3 -P22 T2 T4 -T29 0
-P4 -P22 Q3 Q5 -Q29 0
-P4 -P22 R3 R5 -R29 0
-P4 -P22 S3 S5 -S29 0
-P4 -P22 T3 T5 -T29 0
-P5 -P22 Q4 -Q29 0
-P5 -P22 R4 -R29 0
-P5 -P22 S4 -S29 0
-P5 -P22 T4 -T29 0
-Q1 -Q22 P2 -P29 0
-Q1 -Q22 R2 -R29 0
-Q1 -Q22 S2 -S29 0
-Q1 -Q22 T2 -T29 0
-Q2 -Q22 P1 P3 -P29 0
-Q2 -Q22 R1 R3 -R29 0
-Q2 -Q22 S1 S3 -S29 0
-Q2 -Q22 T1 T3 -T29 0
-Q3 -Q22 P2 P4 -P29 0
-Q3 -Q22 R2 R4 -R29 0
-Q3 -Q22 S2 S4 -S29 0
-Q3 -Q22 T2 T4 -T29 0
-Q4 -Q22 P3 P5 -P29 0
-Q4 -Q22 R3 R5 -R29 0
-Q4 -Q22 S3 S5 -S29 0
-Q4 -Q22 T3 T5 -T29 0
-Q5 -Q22 P4 -P29 0
-Q5 -Q22 R4 -R29 0
-Q5 -Q22 S4 -S29 0
-Q5 -Q22 T4 -T29 0
-R1 -R22 P2 -P29 0
-R1 -R22 Q2 -Q29 0
-R1 -R22 S2 -S29 0
-R1 -R22 T2 -T29 0
-R2 -R22 P1 P3 -P29 0
-R2 -R22 Q1 Q3 -Q29 0
-R2 -R22 S1 S3 -S29 0
-R2 -R22 T1 T3 -T29 0
-R3 -R22 P2 P4 -P29 0
-R3 -R22 Q2 Q4 -Q29 0
-R3 -R22 S2 S4 -S29 0
-R3 -R22 T2 T4 -T29 0
-R4 -R22 P3 P5 -P29 0
-R4 -R22 Q3 Q5 -Q29 0
-R4 -R22 S3 S5 -S29 0
-R4 -R22 T3 T5 -T29 0
-R5 -R22 P4 -P29 0
-R5 -R22 Q4 -Q29 0
-R5 -R22 S4 -S29 0
-R5 -R22 T4 -T29 0
-S1 -S22 P2 -P29 0
-S1 -S22 Q2 -Q29 0
-S1 -S22 R2 -R29 0
-S1 -S22 T2 -T29 0
-S2 -S22 P1 P3 -P29 0
-S2 -S22 Q1 Q3 -Q29 0
-S2 -S22 R1 R3 -R29 0
-S2 -S22 T1 T3 -T29 0
-S3 -S22 P2 P4 -P29 0
-S3 -S22 Q2 Q4 -Q29 0
-S3 -S22 R2 R4 -R29 0
-S3 -S22 T2 T4 -T29 0
-S4 -S22 P3 P5 -P29 0
-S4 -S22 Q3 Q5 -Q29 0
-S4 -S22 R3 R5 -R29 0
-S4 -S22 T3 T5 -T29 0
-S5 -S22 P4 -P29 0
-S5 -S22 Q4 -Q29 0
-S5 -S22 R4 -R29 0
-S5 -S22 T4 -T29 0
-T1 -T22 P2 -P29 0
-T1 -T22 Q2 -Q29 0
-T1 -T22 R2 -R29 0
-T1 -T22 S2 -S29 0
-T2 -T22 P1 P3 -P29 0
-T2 -T22 Q1 Q3 -Q29 0
-T2 -T22 R1 R3 -R29 0
-T2 -T22 S1 S3 -S29 0
-T3 -T22 P2 P4 -P29 0
-T3 -T22 Q2 Q4 -Q29 0
-T3 -T22 R2 R4 -R29 0
-T3 -T22 S2 S4 -S29 0
-T4 -T22 P3 P5 -P29 0
-T4 -T22 Q3 Q5 -Q29 0
-T4 -T22 R3 R5 -R29 0
-T4 -T22 S3 S5 -S29 0
-T5 -T22 P4 -P29 0
-T5 -T22 Q4 -Q29 0
-T5 -T22 R4 -R29 0
-T5 -T22 S4 -S29 0
-P1 -P9 Q2 -Q14 0
-P1 -P9 R2 -R14 0
-P1 -P9 S2 -S14 0
-P1 -P9 T2 -T14 0
-P2 -P9 Q1 Q3 -Q14 0
-P2 -P9 R1 R3 -R14 0
-P2 -P9 S1 S3 -S14 0
-P2 -P9 T1 T3 -T14 0
-P3 -P9 Q2 Q4 -Q14 0
-P3 -P9 R2 R4 -R14 0
-P3 -P9 S2 S4 -S14 0
-P3 -P9 T2 T4 -T14 0
-P4 -P9 Q3 Q5 -Q14 0
-P4 -P9 R3 R5 -R14 0
-P4 -P9 S3 S5 -S14 0
-P4 -P9 T3 T5 -T14 0
-P5 -P9 Q4 -Q14 0
-P5 -P9 R4 -R14 0
-P5 -P9 S4 -S14 0
-P5 -P9 T4 -T14 0
-Q1 -Q9 P2 -P14 0
-Q1 -Q9 R2 -R14 0
-Q1 -Q9 S2 -S14 0
-Q1 -Q9 T2 -T14 0
-Q2 -Q9 P1 P3 -P14 0
-Q2 -Q9 R1 R3 -R14 0
-Q2 -Q9 S1 S3 -S14 0
-Q2 -Q9 T1 T3 -T14 0
-Q3 -Q9 P2 P4 -P14 0
-Q3 -Q9 R2 R4 -R14 0
-Q3 -Q9 S2 S4 -S14 0
-Q3 -Q9 T2 T4 -T14 0
-Q4 -Q9 P3 P5 -P14 0
-Q4 -Q9 R3 R5 -R14 0
-Q4 -Q9 S3 S5 -S14 0
-Q4 -Q9 T3 T5 -T14 0
-Q5 -Q9 P4 -P14 0
-Q5 -Q9 R4 -R14 0
-Q5 -Q9 S4 -S14 0
-Q5 -Q9 T4 -T14 0
-R1 -R9 P2 -P14 0
-R1 -R9 Q2 -Q14 0
-R1 -R9 S2 -S14 0
-R1 -R9 T2 -T14 0
-R2 -R9 P1 P3 -P14 0
-R2 -R9 Q1 Q3 -Q14 0
-R2 -R9 S1 S3 -S14 0
-R2 -R9 T1 T3 -T14 0
-R3 -R9 P2 P4 -P14 0
-R3 -R9 Q2 Q4 -Q14 0
-R3 -R9 S2 S4 -S14 0
-R3 -R9 T2 T4 -T14 0
-R4 -R9 P3 P5 -P14 0
-R4 -R9 Q3 Q5 -Q14 0
-R4 -R9 S3 S5 -S14 0
-R4 -R9 T3 T5 -T14 0
-R5 -R9 P4 -P14 0
-R5 -R9 Q4 -Q14 0
-R5 -R9 S4 -S14 0
-R5 -R9 T4 -T14 0
-S1 -S9 P2 -P14 0
-S1 -S9 Q2 -Q14 0
-S1 -S9 R2 -R14 0
-S1 -S9 T2 -T14 0
-S2 -S9 P1 P3 -P14 0
-S2 -S9 Q1 Q3 -Q14 0
-S2 -S9 R1 R3 -R14 0
-S2 -S9 T1 T3 -T14 0
-S3 -S9 P2 P4 -P14 0
-S3 -S9 Q2 Q4 -Q14 0
-S3 -S9 R2 R4 -R14 0
-S3 -S9 T2 T4 -T14 0
-S4 -S9 P3 P5 -P14 0
-S4 -S9 Q3 Q5 -Q14 0
-S4 -S9 R3 R5 -R14 0
-S4 -S9 T3 T5 -T14 0
-S5 -S9 P4 -P14 0
-S5 -S9 Q4 -Q14 0
-S5 -S9 R4 -R14 0
-S5 -S9 T4 -T14 0
-T1 -T9 P2 -P14 0
-T1 -T9 Q2 -Q14 0
-T1 -T9 R2 -R14 0
-T1 -T9 S2 -S14 0
-T2 -T9 P1 P3 -P14 0
-T2 -T9 Q1 Q3 -Q14 0
-T2 -T9 R1 R3 -R14 0
-T2 -T9 S1 S3 -S14 0
-T3 -T9 P2 P4 -P14 0
-T3 -T9 Q2 Q4 -Q14 0
-T3 -T9 R2 R4 -R14 0
-T3 -T9 S2 S4 -S14 0
-T4 -T9 P3 P5 -P14 0
-T4 -T9 Q3 Q5 -Q14 0
-T4 -T9 R3 R5 -R14 0
-T4 -T9 S3 S5 -S14 0
-T5 -T9 P4 -P14 0
-T5 -T9 Q4 -Q14 0
-T5 -T9 R4 -R14 0
-T5 -T9 S4 -S14 0
-P1 -P20 Q2 -Q23 0
-P1 -P20 R2 -R23 0
-P1 -P20 S2 -S23 0
-P1 -P20 T2 -T23 0
-P2 -P20 Q1 Q3 -Q23 0
-P2 -P20 R1 R3 -R23 0
-P2 -P20 S1 S3 -S23 0
-P2 -P20 T1 T3 -T23 0
-P3 -P20 Q2 Q4 -Q23 0
-P3 -P20 R2 R4 -R23 0
-P3 -P20 S2 S4 -S23 0
-P3 -P20 T2 T4 -T23 0
-P4 -P20 Q3 Q5 -Q23 0
-P4 -P20 R3 R5 -R23 0
-P4 -P20 S3 S5 -S23 0
-P4 -P20 T3 T5 -T23 0
-P5 -P20 Q4 -Q23 0
-P5 -P20 R4 -R23 0
-P5 -P20 S4 -S23 0
-P5 -P20 T4 -T23 0
-Q1 -Q20 P2 -P23 0
-Q1 -Q20 R2 -R23 0
-Q1 -Q20 S2 -S23 0
-Q1 -Q20 T2 -T23 0
-Q2 -Q20 P1 P3 -P23 0
-Q2 -Q20 R1 R3 -R23 0
-Q2 -Q20 S1 S3 -S23 0
-Q2 -Q20 T1 T3 -T23 0
-Q3 -Q20 P2 P4 -P23 0
-Q3 -Q20 R2 R4 -R23 0
-Q3 -Q20 S2 S4 -S23 0
-Q3 -Q20 T2 T4 -T23 0
-Q4 -Q20 P3 P5 -P23 0
-Q4 -Q20 R3 R5 -R23 0
-Q4 -Q20 S3 S5 -S23 0
-Q4 -Q20 T3 T5 -T23 0
-Q5 -Q20 P4 -P23 0
-Q5 -Q20 R4 -R23 0
-Q5 -Q20 S4 -S23 0
-Q5 -Q20 T4 -T23 0
-R1 -R20 P2 -P23 0
-R1 -R20 Q2 -Q23 0
-R1 -R20 S2 -S23 0
-R1 -R20 T2 -T23 0
-R2 -R20 P1 P3 -P23 0
-R2 -R20 Q1 Q3 -Q23 0
-R2 -R20 S1 S3 -S23 0
-R2 -R20 T1 T3 -T23 0
-R3 -R20 P2 P4 -P23 0
-R3 -R20 Q2 Q4 -Q23 0
-R3 -R20 S2 S4 -S23 0
-R3 -R20 T2 T4 -T23 0
-R4 -R20 P3 P5 -P23 0
-R4 -R20 Q3 Q5 -Q23 0
-R4 -R20 S3 S5 -S23 0
-R4 -R20 T3 T5 -T23 0
-R5 -R20 P4 -P23 0
-R5 -R20 Q4 -Q23 0
-R5 -R20 S4 -S23 0
-R5 -R20 T4 -T23 0
-S1 -S20 P2 -P23 0
-S1 -S20 Q2 -Q23 0
-S1 -S20 R2 -R23 0
-S1 -S20 T2 -T23 0
-S2 -S20 P1 P3 -P23 0
-S2 -S20 Q1 Q3 -Q23 0
-S2 -S20 R1 R3 -R23 0
-S2 -S20 T1 T3 -T23 0
-S3 -S20 P2 P4 -P23 0
-S3 -S20 Q2 Q4 -Q23 0
-S3 -S20 R2 R4 -R23 0
-S3 -S20 T2 T4 -T23 0
-S4 -S20 P3 P5 -P23 0
-S4 -S20 Q3 Q5 -Q23 0
-S4 -S20 R3 R5 -R23 0
-S4 -S20 T3 T5 -T23 0
-S5 -S20 P4 -P23 0
-S5 -S20 Q4 -Q23 0
-S5 -S20 R4 -R23 0
-S5 -S20 T4 -T23 0
-T1 -T20 P2 -P23 0
-T1 -T20 Q2 -Q23 0
-T1 -T20 R2 -R23 0
-T1 -T20 S2 -S23 0
-T2 -T20 P1 P3 -P23 0
-T2 -T20 Q1 Q3 -Q23 0
-T2 -T20 R1 R3 -R23 0
-T2 -T20 S1 S3 -S23 0
-T3 -T20 P2 P4 -P23 0
-T3 -T20 Q2 Q4 -Q23 0
-T3 -T20 R2 R4 -R23 0
-T3 -T20 S2 S4 -S23 0
-T4 -T20 P3 P5 -P23 0
-T4 -T20 Q3 Q5 -Q23 0
-T4 -T20 R3 R5 -R23 0
-T4 -T20 S3 S5 -S23 0
-T5 -T20 P4 -P23 0
-T5 -T20 Q4 -Q23 0
-T5 -T20 R4 -R23 0
-T5 -T20 S4 -S23 0
P1 P2 P3 P4 P5 0
-P1 -P2 0
-P1 -P3 0
-P1 -P4 0
-P1 -P5 0
-P2 -P3 0
-P2 -P4 0
-P2 -P5 0
-P3 -P4 0
-P3 -P5 0
-P4 -P5 0
Q1 Q2 Q3 Q4 Q5 0
-Q1 -Q2 0
-Q1 -Q3 0
-Q1 -Q4 0
-Q1 -Q5 0
-Q2 -Q3 0
-Q2 -Q4 0
-Q2 -Q5 0
-Q3 -Q4 0
-Q3 -Q5 0
-Q4 -Q5 0
R1 R2 R3 R4 R5 0
-R1 -R2 0
-R1 -R3 0
-R1 -R4 0
-R1 -R5 0
-R2 -R3 0
-R2 -R4 0
-R2 -R5 0
-R3 -R4 0
-R3 -R5 0
-R4 -R5 0
S1 S2 S3 S4 S5 0
-S1 -S2 0
-S1 -S3 0
-S1 -S4 0
-S1 -S5 0
-S2 -S3 0
-S2 -S4 0
-S2 -S5 0
-S3 -S4 0
-S3 -S5 0
-S4 -S5 0
T1 T2 T3 T4 T5 0
-T1 -T2 0
-T1 -T3 0
-T1 -T4 0
-T1 -T5 0
-T2 -T3 0
-T2 -T4 0
-T2 -T5 0
-T3 -T4 0
-T3 -T5 0
-T4 -T5 0
P6 P7 P8 P9 P10 0
-P6 -P7 0
-P6 -P8 0
-P6 -P9 0
-P6 -P10 0
-P7 -P8 0
-P7 -P9 0
-P7 -P10 0
-P8 -P9 0
-P8 -P10 0
-P9 -P10 0
Q6 Q7 Q8 Q9 Q10 0
-Q6 -Q7 0
-Q6 -Q8 0
-Q6 -Q9 0
-Q6 -Q10 0
-Q7 -Q8 0
-Q7 -Q9 0
-Q7 -Q10 0
-Q8 -Q9 0
-Q8 -Q10 0
-Q9 -Q10 0
R6 R7 R8 R9 R10 0
-R6 -R7 0
-R6 -R8 0
-R6 -R9 0
-R6 -R10 0
-R7 -R8 0
-R7 -R9 0
-R7 -R10 0
-R8 -R9 0
-R8 -R10 0
-R9 -R10 0
S6 S7 S8 S9 S10 0
-S6 -S7 0
-S6 -S8 0
-S6 -S9 0
-S6 -S10 0
-S7 -S8 0
-S7 -S9 0
-S7 -S10 0
-S8 -S9 0
-S8 -S10 0
-S9 -S10 0
T6 T7 T8 T9 T10 0
-T6 -T7 0
-T6 -T8 0
-T6 -T9 0
-T6 -T10 0
-T7 -T8 0
-T7 -T9 0
-T7 -T10 0
-T8 -T9 0
-T8 -T10 0
-T9 -T10 0
P11 P12 P13 P14 P15 0
-P11 -P12 0
-P11 -P13 0
-P11 -P14 0
-P11 -P15 0
-P12 -P13 0
-P12 -P14 0
-P12 -P15 0
-P13 -P14 0
-P13 -P15 0
-P14 -P15 0
Q11 Q12 Q13 Q14 Q15 0
-Q11 -Q12 0
-Q11 -Q13 0
-Q11 -Q14 0
-Q11 -Q15 0
-Q12 -Q13 0
-Q12 -Q14 0
-Q12 -Q15 0
-Q13 -Q14 0
-Q13 -Q15 0
-Q14 -Q15 0
R11 R12 R13 R14 R15 0
-R11 -R12 0
-R11 -R13 0
-R11 -R14 0
-R11 -R15 0
-R12 -R13 0
-R12 -R14 0
-R12 -R15 0
-R13 -R14 0
-R13 -R15 0
-R14 -R15 0
S11 S12 S13 S14 S15 0
-S11 -S12 0
-S11 -S13 0
-S11 -S14 0
-S11 -S15 0
-S12 -S13 0
-S12 -S14 0
-S12 -S15 0
-S13 -S14 0
-S13 -S15 0
-S14 -S15 0
T11 T12 T13 T14 T15 0
-T11 -T12 0
-T11 -T13 0
-T11 -T14 0
-T11 -T15 0
-T12 -T13 0
-T12 -T14 0
-T12 -T15 0
-T13 -T14 0
-T13 -T15 0
-T14 -T15 0
P16 P17 P18 P19 P20 0
-P16 -P17 0
-P16 -P18 0
-P16 -P19 0
-P16 -P20 0
-P17 -P18 0
-P17 -P19 0
-P17 -P20 0
-P18 -P19 0
-P18 -P20 0
-P19 -P20 0
Q16 Q17 Q18 Q19 Q20 0
-Q16 -Q17 0
-Q16 -Q18 0
-Q16 -Q19 0
-Q16 -Q20 0
-Q17 -Q18 0
-Q17 -Q19 0
-Q17 -Q20 0
-Q18 -Q19 0
-Q18 -Q20 0
-Q19 -Q20 0
R16 R17 R18 R19 R20 0
-R16 -R17 0
-R16 -R18 0
-R16 -R19 0
-R16 -R20 0
-R17 -R18 0
-R17 -R19 0
-R17 -R20 0
-R18 -R19 0
-R18 -R20 0
-R19 -R20 0
S16 S17 S18 S19 S20 0
-S16 -S17 0
-S16 -S18 0
-S16 -S19 0
-S16 -S20 0
-S17 -S18 0
-S17 -S19 0
-S17 -S20 0
-S18 -S19 0
-S18 -S20 0
-S19 -S20 0
T16 T17 T18 T19 T20 0
-T16 -T17 0
-T16 -T18 0
-T16 -T19 0
-T16 -T20 0
-T17 -T18 0
-T17 -T19 0
-T17 -T20 0
-T18 -T19 0
-T18 -T20 0
-T19 -T20 0
P21 P22 P23 P24 P25 0
-P21 -P22 0
-P21 -P23 0
-P21 -P24 0
-P21 -P25 0
-P22 -P23 0
-P22 -P24 0
-P22 -P25 0
-P23 -P24 0
-P23 -P25 0
-P24 -P25 0
Q21 Q22 Q23 Q24 Q25 0
-Q21 -Q22 0
-Q21 -Q23 0
-Q21 -Q24 0
-Q21 -Q25 0
-Q22 -Q23 0
-Q22 -Q24 0
-Q22 -Q25 0
-Q23 -Q24 0
-Q23 -Q25 0
-Q24 -Q25 0
R21 R22 R23 R24 R25 0
-R21 -R22 0
-R21 -R23 0
-R21 -R24 0
-R21 -R25 0
-R22 -R23 0
-R22 -R24 0
-R22 -R25 0
-R23 -R24 0
-R23 -R25 0
-R24 -R25 0
S21 S22 S23 S24 S25 0
-S21 -S22 0
-S21 -S23 0
-S21 -S24 0
-S21 -S25 0
-S22 -S23 0
-S22 -S24 0
-S22 -S25 0
-S23 -S24 0
-S23 -S25 0
-S24 -S25 0
T21 T22 T23 T24 T25 0
-T21 -T22 0
-T21 -T23 0
-T21 -T24 0
-T21 -T25 0
-T22 -T23 0
-T22 -T24 0
-T22 -T25 0
-T23 -T24 0
-T23 -T25 0
-T24 -T25 0
P26 P27 P28 P29 P30 0
-P26 -P27 0
-P26 -P28 0
-P26 -P29 0
-P26 -P30 0
-P27 -P28 0
-P27 -P29 0
-P27 -P30 0
-P28 -P29 0
-P28 -P30 0
-P29 -P30 0
Q26 Q27 Q28 Q29 Q30 0
-Q26 -Q27 0
-Q26 -Q28 0
-Q26 -Q29 0
-Q26 -Q30 0
-Q27 -Q28 0
-Q27 -Q29 0
-Q27 -Q30 0
-Q28 -Q29 0
-Q28 -Q30 0
-Q29 -Q30 0
R26 R27 R28 R29 R30 0
-R26 -R27 0
-R26 -R28 0
-R26 -R29 0
-R26 -R30 0
-R27 -R28 0
-R27 -R29 0
-R27 -R30 0
-R28 -R29 0
-R28 -R30 0
-R29 -R30 0
S26 S27 S28 S29 S30 0
-S26 -S27 0
-S26 -S28 0
-S26 -S29 0
-S26 -S30 0
-S27 -S28 0
-S27 -S29 0
-S27 -S30 0
-S28 -S29 0
-S28 -S30 0
-S29 -S30 0
T26 T27 T28 T29 T30 0
-T26 -T27 0
-T26 -T28 0
-T26 -T29 0
-T26 -T30 0
-T27 -T28 0
-T27 -T29 0
-T27 -T30 0
-T28 -T29 0
-T28 -T30 0
-T29 -T30 0
-P1 -Q1 0
-P1 -R1 0
-P1 -S1 0
-P1 -T1 0
-Q1 -R1 0
-Q1 -S1 0
-Q1 -T1 0
-R1 -S1 0
-R1 -T1 0
-S1 -T1 0
-P2 -Q2 0
-P2 -R2 0
-P2 -S2 0
-P2 -T2 0
-Q2 -R2 0
-Q2 -S2 0
-Q2 -T2 0
-R2 -S2 0
-R2 -T2 0
-S2 -T2 0
-P3 -Q3 0
-P3 -R3 0
-P3 -S3 0
-P3 -T3 0
-Q3 -R3 0
-Q3 -S3 0
-Q3 -T3 0
-R3 -S3 0
-R3 -T3 0
-S3 -T3 0
-P4 -Q4 0
-P4 -R4 0
-P4 -S4 0
-P4 -T4 0
-Q4 -R4 0
-Q4 -S4 0
-Q4 -T4 0
-R4 -S4 0
-R4 -T4 0
-S4 -T4 0
-P5 -Q5 0
-P5 -R5 0
-P5 -S5 0
-P5 -T5 0
-Q5 -R5 0
-Q5 -S5 0
-Q5 -T5 0
-R5 -S5 0
-R5 -T5 0
-S5 -T5 0
-P6 -Q6 0
-P6 -R6 0
-P6 -S6 0
-P6 -T6 0
-Q6 -R6 0
-Q6 -S6 0
-Q6 -T6 0
-R6 -S6 0
-R6 -T6 0
-S6 -T6 0
-P7 -Q7 0
-P7 -R7 0
-P7 -S7 0
-P7 -T7 0
-Q7 -R7 0
-Q7 -S7 0
-Q7 -T7 0
-R7 -S7 0
-R7 -T7 0
-S7 -T7 0
-P8 -Q8 0
-P8 -R8 0
-P8 -S8 0
-P8 -T8 0
-Q8 -R8 0
-Q8 -S8 0
-Q8 -T8 0
-R8 -S8 0
-R8 -T8 0
-S8 -T8 0
-P9 -Q9 0
-P9 -R9 0
-P9 -S9 0
-P9 -T9 0
-Q9 -R9 0
-Q9 -S9 0
-Q9 -T9 0
-R9 -S9 0
-R9 -T9 0
-S9 -T9 0
-P10 -Q10 0
-P10 -R10 0
-P10 -S10 0
-P10 -T10 0
-Q10 -R10 0
-Q10 -S10 0
-Q10 -T10 0
-R10 -S10 0
-R10 -T10 0
-S10 -T10 0
-P11 -Q11 0
-P11 -R11 0
-P11 -S11 0
-P11 -T11 0
-Q11 -R11 0
-Q11 -S11 0
-Q11 -T11 0
-R11 -S11 0
-R11 -T11 0
-S11 -T11 0
-P12 -Q12 0
-P12 -R12 0
-P12 -S12 0
-P12 -T12 0
-Q12 -R12 0
-Q12 -S12 0
-Q12 -T12 0
-R12 -S12 0
-R12 -T12 0
-S12 -T12 0
-P13 -Q13 0
-P13 -R13 0
-P13 -S13 0
-P13 -T13 0
-Q13 -R13 0
-Q13 -S13 0
-Q13 -T13 0
-R13 -S13 0
-R13 -T13 0
-S13 -T13 0
-P14 -Q14 0
-P14 -R14 0
-P14 -S14 0
-P14 -T14 0
-Q14 -R14 0
-Q14 -S14 0
-Q14 -T14 0
-R14 -S14 0
-R14 -T14 0
-S14 -T14 0
-P15 -Q15 0
-P15 -R15 0
-P15 -S15 0
-P15 -T15 0
-Q15 -R15 0
-Q15 -S15 0
-Q15 -T15 0
-R15 -S15 0
-R15 -T15 0
-S15 -T15 0
-P16 -Q16 0
-P16 -R16 0
-P16 -S16 0
-P16 -T16 0
-Q16 -R16 0
-Q16 -S16 0
-Q16 -T16 0
-R16 -S16 0
-R16 -T16 0
-S16 -T16 0
-P17 -Q17 0
-P17 -R17 0
-P17 -S17 0
-P17 -T17 0
-Q17 -R17 0
-Q17 -S17 0
-Q17 -T17 0
-R17 -S17 0
-R17 -T17 0
-S17 -T17 0
-P18 -Q18 0
-P18 -R18 0
-P18 -S18 0
-P18 -T18 0
-Q18 -R18 0
-Q18 -S18 0
-Q18 -T18 0
-R18 -S18 0
-R18 -T18 0
-S18 -T18 0
-P19 -Q19 0
-P19 -R19 0
-P19 -S19 0
-P19 -T19 0
-Q19 -R19 0
-Q19 -S19 0
-Q19 -T19 0
-R19 -S19 0
-R19 -T19 0
-S19 -T19 0
-P20 -Q20 0
-P20 -R20 0
-P20 -S20 0
-P20 -T20 0
-Q20 -R20 0
-Q20 -S20 0
-Q20 -T20 0
-R20 -S20 0
-R20 -T20 0
-S20 -T20 0
-P21 -Q21 0
-P21 -R21 0
-P21 -S21 0
-P21 -T21 0
-Q21 -R21 0
-Q21 -S21 0
-Q21 -T21 0
-R21 -S21 0
-R21 -T21 0
-S21 -T21 0
-P22 -Q22 0
-P22 -R22 0
-P22 -S22 0
-P22 -T22 0
-Q22 -R22 0
-Q22 -S22 0
-Q22 -T22 0
-R22 -S22 0
-R22 -T22 0
-S22 -T22 0
-P23 -Q23 0
-P23 -R23 0
-P23 -S23 0
-P23 -T23 0
-Q23 -R23 0
-Q23 -S23 0
-Q23 -T23 0
-R23 -S23 0
-R23 -T23 0
-S23 -T23 0
-P24 -Q24 0
-P24 -R24 0
-P24 -S24 0
-P24 -T24 0
-Q24 -R24 0
-Q24 -S24 0
-Q24 -T24 0
-R24 -S24 0
-R24 -T24 0
-S24 -T24 0
-P25 -Q25 0
-P25 -R25 0
-P25 -S25 0
-P25 -T25 0
-Q25 -R25 0
-Q25 -S25 0
-Q25 -T25 0
-R25 -S25 0
-R25 -T25 0
-S25 -T25 0
-P26 -Q26 0
-P26 -R26 0
-P26 -S26 0
-P26 -T26 0
-Q26 -R26 0
-Q26 -S26 0
-Q26 -T26 0
-R26 -S26 0
-R26 -T26 0
-S26 -T26 0
-P27 -Q27 0
-P27 -R27 0
-P27 -S27 0
-P27 -T27 0
-Q27 -R27 0
-Q27 -S27 0
-Q27 -T27 0
-R27 -S27 0
-R27 -T27 0
-S27 -T27 0
-P28 -Q28 0
-P28 -R28 0
-P28 -S28 0
-P28 -T28 0
-Q28 -R28 0
-Q28 -S28 0
-Q28 -T28 0
-R28 -S28 0
-R28 -T28 0
-S28 -T28 0
-P29 -Q29 0
-P29 -R29 0
-P29 -S29 0
-P29 -T29 0
-Q29 -R29 0
-Q29 -S29 0
-Q29 -T29 0
-R29 -S29 0
-R29 -T29 0
-S29 -T29 0
-P30 -Q30 0
-P30 -R30 0
-P30 -S30 0
-P30 -T30 0
-Q30 -R30 0
-Q30 -S30 0
-Q30 -T30 0
-R30 -S30 0
-R30 -T30 0
-S30 -T30 0